c ---- [ banner ] ------------------------------------------------------------
c
c Kissat SAT Solver
c 
c Copyright (c) 2021-2024 Armin Biere University of Freiburg
c Copyright (c) 2019-2021 Armin Biere Johannes Kepler University Linz
c 
c Version 4.0.1 43f02cf3e992cb44653b35e5cb26f93281552ae0
c gcc (Ubuntu 13.2.0-23ubuntu4) 13.2.0 -W -Wall -O3 -DNDEBUG
c Thu Sep 12 12:27:46 CEST 2024 Linux abryzen9 6.8.0-41-generic x86_64
c
c ---- [ parsing ] -----------------------------------------------------------
c
c opened and reading DIMACS file:
c
c   /data/artifact/AMulet2.0_artifact/exp4/cnf_compress2rs_64/64_64_U_SP_DT_BK_GenMul_compress2rs.cnf
c
c parsed 'p cnf 34648 135310' header
c closing input after reading 2632900 bytes (3 MB)
c finished parsing after 0.04 seconds
c
c ---- [ options ] -----------------------------------------------------------
c
c --stable=0                       (different from default '1')
c
c ---- [ solving ] -----------------------------------------------------------
c
c  seconds switched rate     size/glue tier1  binary           remaining
c         MB reductions conflicts size  tier2     irredundant
c          level restarts redundant glue  trail           variables
c
c *  0.04 10 0 0 0  0 0   0   0 0.0 0 0 0 0 0% 27467 107841 34645 100%
c (  0.06 12 0 0 0  0 0   0   0 0.0 0 0 0 0 0% 27467 107841 34645 100%
c .  0.07 13 0 0 0  0 0   0   0 0.0 0 0 0 0 0% 27463 107841 34645 100%
c c  0.18 20 0 0 0  0 0   0   0 0.0 0 0 0 0 0% 34367 94033 31193 90%
c d  0.19 21 0 0 0  0 0   0   0 0.0 0 0 0 0 0% 27463 94033 31193 90%
c =  0.25 21 0 0 0  0 0   0   0 0.0 0 0 0 0 0% 27969 94033 30940 89%
c d  0.26 21 0 0 0  0 0   0   0 0.0 0 0 0 0 0% 27463 94033 30940 89%
c f  0.37 19 0 0 0  0 0   0   0 0.0 0 0 0 0 0% 30327 89461 32648 94%
c e  0.52 26 0 0 0  0 0   0   0 0.0 0 0 0 0 0% 8482 103389 21607 62%
c )  0.52 26 0 0 0  0 0   0   0 0.0 0 0 0 0 0% 8482 103389 21607 62%
c {  0.54 26 0 0 0  0 0   0   0 0.0 0 0 2 6 0% 8482 103389 21607 62%
c -  0.88 28 134 0 1 174 31 1000 702 3.2 32 10 3 10 25% 8515 103389 21607 62%
c -  1.00 28 322 0 2 223 28 2000 1346 3.4 28 8 3 12 21% 8547 103389 21607 62%
c c  1.12 23 343 0 2 238 25 2503 1830 3.2 25 8 3 12 20% 8548 103338 21591 62%
c d  1.13 23 343 0 2 238 25 2503 1821 3.2 25 8 3 12 20% 8516 103338 21591 62%
c u  1.14 23 343 0 2 238 25 2503 1391 3.2 25 8 3 12 20% 8517 103338 21591 62%
c v  1.16 23 343 0 2 238 25 2503 1244 3.2 25 8 3 12 20% 8517 103338 21591 62%
c w  1.18 23 343 0 2 238 25 2503 1244 3.2 25 8 3 12 20% 8517 103338 21591 62%
c =  1.24 23 343 0 2 238 25 2503 1244 3.2 25 8 3 12 20% 8739 103338 21480 62%
c d  1.25 23 343 0 2 238 25 2503 1243 3.2 25 8 3 12 20% 8517 103338 21480 62%
c
c  seconds   switched   rate       size/glue tier1     binary          remaining
c         MB  reductions conflicts       size  tier2      irredundant
c           level restarts    redundant    glue    trail          variables
c
c f  1.27 23 343 0 2 238 25 2503 1243 3.2 25 8 3 12 20% 9095 102195 22045 64%
c u  1.28 23 343 0 2 238 25 2503 1202 3.2 25 8 3 12 20% 9095 102195 22045 64%
c v  1.29 23 343 0 2 238 25 2503 1108 3.2 25 8 3 12 20% 9095 102195 22045 64%
c w  1.31 23 343 0 2 238 25 2503 1103 3.2 25 8 3 12 20% 9095 102195 22045 64%
c =  1.34 23 343 0 2 238 25 2503 1103 3.2 25 8 3 12 20% 9273 102195 21956 63%
c d  1.34 23 343 0 2 238 25 2503 1103 3.2 25 8 3 12 20% 9039 102195 21956 63%
c f  1.37 23 343 0 2 238 25 2503 1103 3.2 25 8 3 12 20% 9219 101925 22046 64%
c -  1.50 27 343 0 3 295 24 3414 1608 3.3 24 7 3 12 22% 9249 101925 22046 64%
c -  1.99 29 337 0 4 485 26 5146 2668 3.5 35 10 3 12 25% 9296 101925 22046 64%
c -  2.18 29 343 0 5 559 23 7146 3684 3.4 31 9 2 12 25% 9363 101925 22046 64%
c c  2.31 29 337 0 5 591 23 7705 4152 3.4 30 9 2 12 25% 9382 101803 22006 64%
c d  2.31 29 337 0 5 591 23 7705 4120 3.4 30 9 2 12 25% 9302 101803 22006 64%
c u  2.33 29 337 0 5 591 23 7705 3374 3.4 30 9 2 12 25% 9308 101803 22006 64%
c v  2.36 29 337 0 5 591 23 7705 2834 3.4 30 9 2 12 25% 9308 101803 22006 64%
c w  2.38 29 337 0 5 591 23 7705 2826 3.4 30 9 2 12 25% 9308 101803 22006 64%
c x  2.40 29 337 0 5 591 23 7705 2826 3.4 30 9 2 12 25% 9308 101644 22006 64%
c =  2.49 29 337 0 5 591 23 7705 2826 3.4 30 9 2 12 25% 10190 101644 21565 62%
c d  2.50 29 337 0 5 591 23 7705 2814 3.4 30 9 2 12 25% 9181 101644 21565 62%
c t  2.51 29 337 0 5 591 23 7705 2814 3.4 30 9 2 12 25% 9176 101644 21565 62%
c f  2.54 29 337 0 5 591 23 7705 2814 3.4 30 9 2 12 25% 10538 99601 22246 64%
c
c  seconds   switched   rate       size/glue tier1     binary          remaining
c         MB  reductions conflicts       size  tier2       irredundant
c           level restarts    redundant    glue    trail          variables
c
c u  2.60 29 337 0 5 591 23 7705 2648 3.4 30 9 2 12 25% 10538 99601 22246 64%
c v  2.63 29 337 0 5 591 23 7705 2538 3.4 30 9 2 12 25% 10538 99601 22246 64%
c w  2.66 29 337 0 5 591 23 7705 2534 3.4 30 9 2 12 25% 10538 99601 22246 64%
c x  2.69 29 337 0 5 591 23 7705 2534 3.4 30 9 2 12 25% 10538 95638 22246 64%
c =  2.81 29 337 0 5 591 23 7705 2534 3.4 30 9 2 12 25% 11178 95636 21926 63%
c d  2.82 29 337 0 5 591 23 7705 2528 3.4 30 9 2 12 25% 10430 95636 21926 63%
c t  2.83 29 337 0 5 591 23 7705 2528 3.4 30 9 2 12 25% 10416 95636 21926 63%
c f  2.88 29 337 0 5 591 23 7705 2528 3.4 30 9 2 12 25% 11250 94385 22343 64%
c -  3.01 29 316 0 6 652 22 9384 3243 3.3 28 8 2 10 23% 11297 94385 22343 64%
c o  3.14 29 307 0 6 703 22 10020 3762 3.5 30 8 2 10 24% 11316 94385 22343 64%
c -  3.51 29 292 0 7 878 23 11833 4646 3.7 31 8 2 10 26% 11346 94385 22343 64%
c s  3.69 29 300 0 7 958 25 12505 5260 3.7 32 9 2 10 27% 11357 92784 22343 64%
c e  3.77 29 300 0 7 958 25 12505 5260 3.7 32 9 2 10 27% 9981 93611 21200 61%
c s  3.78 29 300 0 7 958 25 12505 5260 3.7 32 9 2 10 27% 9982 92565 21200 61%
c e  3.79 29 300 0 7 958 25 12505 5260 3.7 32 9 2 10 27% 9910 92637 21175 61%
c ^  3.79 29 300 0 7 958 25 12505 5260 3.7 32 9 2 10 27% 9910 92637 21175 61%
c -  3.85 29 286 0 8 971 23 14478 5341 3.6 29 8 2 9 24% 10009 92637 21175 61%
c d  4.18 29 280 0 8 1065 23 15781 6317 3.7 30 8 2 9 25% 9755 92637 20999 61%
c u  4.20 29 280 0 8 1065 23 15781 5149 3.7 30 8 2 9 25% 9769 92637 20999 61%
c v  4.23 29 280 0 8 1065 23 15781 4333 3.7 30 8 2 9 25% 9771 92637 20999 61%
c
c  seconds   switched    rate        size/glue tier1    binary         remaining
c         MB  reductions   conflicts       size  tier2     irredundant
c           level  restarts     redundant    glue   trail         variables
c
c w  4.27 29 280 0 8 1065 23 15781 4333 3.7 30 8 2 9 25% 9771 92637 20999 61%
c x  4.30 29 280 0 8 1065 23 15781 4333 3.7 30 8 2 9 25% 9771 91165 20999 61%
c =  4.43 29 280 0 8 1065 23 15781 4333 3.7 30 8 2 9 25% 11441 91165 20164 58%
c d  4.43 29 280 0 8 1065 23 15781 4253 3.7 30 8 2 9 25% 9376 91165 20162 58%
c t  4.45 29 280 0 8 1065 23 15781 4253 3.7 30 8 2 9 25% 9369 91165 20162 58%
c f  4.51 29 280 0 8 1065 23 15781 4253 3.7 30 8 2 9 25% 9407 91087 20182 58%
c u  4.62 29 280 0 8 1065 23 15781 3946 3.7 30 8 2 9 25% 9409 91087 20182 58%
c v  4.65 29 280 0 8 1065 23 15781 3777 3.7 30 8 2 9 25% 9409 91087 20182 58%
c w  4.75 29 280 0 8 1065 23 15781 3771 3.7 30 8 2 9 25% 9409 91087 20182 58%
c x  4.79 29 280 0 8 1065 23 15781 3771 3.7 30 8 2 9 25% 9410 89161 20182 58%
c =  4.97 29 280 0 8 1065 23 15781 3771 3.7 30 8 2 9 25% 11300 89161 19237 56%
c d  4.98 29 280 0 8 1065 23 15781 3700 3.7 30 8 2 9 25% 9041 89161 19237 56%
c t  5.00 29 280 0 8 1065 23 15781 3700 3.7 30 8 2 9 25% 9040 89161 19237 56%
c -  5.27 29 290 0 9 1132 23 17306 4326 3.7 29 8 2 9 25% 9062 89161 19237 56%
c o  5.79 29 293 0 9 1283 23 20280 6948 3.6 28 8 2 9 25% 9112 89161 19237 56%
c -  5.83 29 293 0 10 1289 23 20306 6122 3.6 29 8 2 8 25% 9112 89161 19237 56%
c -  6.54 29 293 0 11 1511 24 23468 7848 3.7 29 8 2 8 26% 9152 89161 19237 56%
c s  6.97 29 290 0 11 1644 24 25006 9240 3.7 29 8 2 8 26% 9173 88132 19237 56%
c e  7.11 29 290 0 11 1644 24 25006 9240 3.7 29 8 2 8 26% 8016 91699 16418 47%
c s  7.13 29 290 0 11 1644 24 25006 9240 3.7 29 8 2 8 26% 8016 87474 16418 47%
c
c  seconds   switched     rate        size/glue tier1    binary         remaining
c         MB   reductions   conflicts       size  tier2     irredundant
c           level   restarts     redundant    glue   trail         variables
c
c e  7.18 29 290 0 11 1644 24 25006 9240 3.7 29 8 2 8 26% 8012 87492 16403 47%
c ^  7.18 29 290 0 11 1644 24 25006 9240 3.7 29 8 2 8 26% 8012 87492 16403 47%
c -  7.59 29 278 0 12 1716 23 26786 7747 3.6 28 8 2 8 27% 8035 87492 16403 47%
c d  7.63 29 277 0 12 1719 23 26908 7860 3.6 28 8 2 8 27% 7985 87492 16372 47%
c u  7.68 29 277 0 12 1719 23 26908 6499 3.6 28 8 2 8 27% 7994 87492 16372 47%
c v  7.73 29 277 0 12 1719 23 26908 5534 3.6 28 8 2 8 27% 7995 87492 16372 47%
c w  7.75 29 277 0 12 1719 23 26908 5530 3.6 28 8 2 8 27% 7995 87492 16372 47%
c x  7.84 29 277 0 12 1719 23 26908 5530 3.6 28 8 2 8 27% 7995 85101 16372 47%
c =  8.08 29 277 0 12 1719 23 26908 5530 3.6 28 8 2 8 27% 9687 85101 15526 45%
c d  8.09 29 277 0 12 1719 23 26908 5372 3.6 28 8 2 8 27% 7916 85101 15523 45%
c t  8.11 29 277 0 12 1719 23 26908 5372 3.6 28 8 2 8 27% 7904 85101 15523 45%
c f  8.19 29 277 0 12 1719 23 26908 5372 3.6 28 8 2 8 27% 7905 85061 15532 45%
c u  8.23 29 277 0 12 1719 23 26908 5000 3.6 28 8 2 8 27% 7905 85061 15532 45%
c v  8.26 29 277 0 12 1719 23 26908 4868 3.6 28 8 2 8 27% 7905 85061 15532 45%
c w  8.27 29 277 0 12 1719 23 26908 4865 3.6 28 8 2 8 27% 7905 85061 15532 45%
c x  8.39 29 277 0 12 1719 23 26908 4864 3.6 28 8 2 8 27% 7905 79944 15532 45%
c =  8.62 29 277 0 12 1719 23 26908 4864 3.6 28 8 2 8 27% 9473 79928 14748 43%
c d  8.63 29 277 0 12 1719 23 26908 4735 3.6 28 8 2 8 27% 7863 79928 14748 43%
c -  9.19 29 256 0 13 1845 22 30253 6829 3.4 26 8 2 8 27% 7880 79926 14748 43%
c -  9.81 29 240 0 14 2024 21 33859 8895 3.3 25 8 2 8 27% 7898 79922 14748 43%
c
c  seconds   switched     rate         size/glue tier1    binary         remaining
c         MB   reductions   conflicts        size  tier2     irredundant
c           level   restarts      redundant    glue   trail         variables
c
c - 10.32 29 236 0 15 2205 20 37601 10630 3.2 24 7 2 8 26% 7908 79922 14748 43%
c o 10.80 29 236 0 15 2399 20 40398 13147 3.2 24 7 2 8 26% 7934 79922 14748 43%
c c 11.03 29 238 0 15 2466 20 41243 13889 3.2 24 7 2 8 26% 7973 79732 14704 42%
c d 11.04 29 238 0 15 2466 20 41243 13783 3.2 24 7 2 8 26% 7882 79732 14702 42%
c u 11.09 29 238 0 15 2466 20 41243 11638 3.2 24 7 2 8 26% 7891 79732 14702 42%
c v 11.14 29 238 0 15 2466 20 41243 10892 3.2 24 7 2 8 26% 7891 79732 14702 42%
c w 11.18 29 238 0 15 2466 20 41243 10892 3.2 24 7 2 8 26% 7891 79732 14702 42%
c x 11.24 29 238 0 15 2466 20 41243 10892 3.2 24 7 2 8 26% 7891 75061 14702 42%
c = 11.47 29 238 0 15 2466 20 41243 10892 3.2 24 7 2 8 26% 7975 75059 14660 42%
c d 11.48 29 238 0 15 2466 20 41243 10859 3.2 24 7 2 8 26% 7884 75059 14658 42%
c t 11.49 29 238 0 15 2466 20 41243 10859 3.2 24 7 2 8 26% 7877 75059 14658 42%
c u 11.57 29 238 0 15 2466 20 41243 10515 3.2 24 7 2 8 26% 7877 75059 14658 42%
c v 11.64 29 238 0 15 2466 20 41243 9650 3.2 24 7 2 8 26% 7878 75059 14658 42%
c w 11.70 29 238 0 15 2466 20 41243 9650 3.2 24 7 2 8 26% 7878 75059 14658 42%
c x 11.75 29 238 0 15 2466 20 41243 9650 3.2 24 7 2 8 26% 7878 74460 14658 42%
c = 11.99 29 238 0 15 2466 20 41243 9650 3.2 24 7 2 8 26% 8618 74460 14288 41%
c d 12.00 29 238 0 15 2466 20 41243 9404 3.2 24 7 2 8 26% 7838 74460 14288 41%
c - 12.11 29 238 0 16 2492 21 41474 8283 3.2 24 7 2 7 26% 7839 74460 14288 41%
c - 12.65 29 226 0 17 2724 20 45477 10195 3.1 23 7 2 8 26% 7860 74455 14288 41%
c - 12.98 29 223 0 18 2914 20 49602 12067 3.1 23 7 2 7 26% 7887 74452 14288 41%
c
c  seconds   switched     rate         size/glue tier1    binary         remaining
c         MB   reductions   conflicts        size  tier2     irredundant
c           level   restarts      redundant    glue   trail         variables
c
c s 13.12 29 219 0 18 2990 19 52113 14061 3.1 22 7 2 7 26% 7920 70347 14288 41%
c e 13.19 29 219 0 18 2990 19 52113 14061 3.1 22 7 2 7 26% 6697 72659 13221 38%
c s 13.20 29 219 0 18 2990 19 52113 14061 3.1 22 7 2 7 26% 6697 72157 13221 38%
c e 13.21 29 219 0 18 2990 19 52113 14061 3.1 22 7 2 7 26% 6697 72155 13211 38%
c ^ 13.21 29 219 0 18 2990 19 52113 14061 3.1 22 7 2 7 26% 6697 72155 13211 38%
c - 13.39 29 214 0 19 3104 19 53844 12195 3.0 22 7 2 7 26% 6700 72155 13211 38%
c - 13.75 29 207 0 20 3352 19 58205 14006 2.9 21 7 2 7 26% 6733 72155 13211 38%
c c 13.84 29 206 0 20 3384 19 58891 14591 2.9 21 7 2 7 26% 6790 71920 13168 38%
c d 13.85 29 206 0 20 3384 19 58891 14411 2.9 21 7 2 7 26% 6704 71920 13168 38%
c u 13.89 29 206 0 20 3384 19 58891 11721 2.9 21 7 2 7 26% 6733 71920 13168 38%
c v 13.92 29 206 0 20 3384 19 58891 10325 2.9 21 7 2 7 26% 6734 71920 13168 38%
c w 13.94 29 206 0 20 3384 19 58891 10311 2.9 21 7 2 7 26% 6734 71920 13168 38%
c x 13.97 29 206 0 20 3384 19 58891 10311 2.9 21 7 2 7 26% 6734 71874 13168 38%
c d 14.14 29 206 0 20 3384 19 58891 10292 2.9 21 7 2 7 26% 6712 71874 13157 38%
c t 14.15 29 206 0 20 3384 19 58891 10292 2.9 21 7 2 7 26% 6706 71874 13157 38%
c f 14.18 29 206 0 20 3384 19 58891 10292 2.9 21 7 2 7 26% 6712 71843 13162 38%
c c 14.22 29 206 0 20 3384 19 58891 10277 2.9 21 7 2 7 26% 6730 71763 13152 38%
c d 14.22 29 206 0 20 3384 19 58891 10277 2.9 21 7 2 7 26% 6710 71763 13152 38%
c u 14.26 29 206 0 20 3384 19 58891 9872 2.9 21 7 2 7 26% 6717 71763 13152 38%
c v 14.28 29 206 0 20 3384 19 58891 9480 2.9 21 7 2 7 26% 6717 71763 13152 38%
c
c  seconds   switched     rate        size/glue tier1    binary         remaining
c         MB   reductions   conflicts       size  tier2     irredundant
c           level   restarts     redundant    glue   trail         variables
c
c w 14.29 29 206 0 20 3384 19 58891 9467 2.9 21 7 2 7 26% 6717 71763 13152 38%
c d 14.30 29 206 0 20 3384 19 58891 9466 2.9 21 7 2 7 26% 6715 71763 13151 38%
c - 14.68 29 199 0 21 3621 18 62677 11329 2.9 21 7 2 7 26% 6748 71762 13151 38%
c - 15.20 29 191 0 22 3945 18 67259 13883 2.8 20 7 2 7 25% 6775 71762 13151 38%
c o 15.34 29 184 0 22 4016 17 70400 16468 2.8 20 7 2 7 25% 6784 71762 13151 38%
c - 15.54 29 184 0 23 4165 18 71949 15878 2.8 20 7 2 7 25% 6798 71762 13151 38%
c - 16.03 29 183 0 24 4608 18 76747 17422 2.8 20 7 2 6 25% 6878 71761 13151 38%
c d 16.44 29 181 0 24 4918 18 79983 19841 2.8 20 7 2 6 25% 6745 71761 13072 38%
c u 16.50 29 181 0 24 4918 18 79983 16869 2.8 20 7 2 6 25% 6773 71761 13072 38%
c v 16.55 29 181 0 24 4918 18 79983 15663 2.8 20 7 2 6 25% 6773 71761 13072 38%
c w 16.58 29 181 0 24 4918 18 79983 15657 2.8 20 7 2 6 25% 6773 71761 13072 38%
c x 16.63 29 181 0 24 4918 18 79983 15653 2.8 20 7 2 6 25% 6773 70050 13072 38%
c = 16.87 29 181 0 24 4918 18 79983 15653 2.8 20 7 2 6 25% 6823 70050 13047 38%
c d 16.88 29 181 0 24 4918 18 79983 15595 2.8 20 7 2 6 25% 6752 70050 13038 38%
c t 16.89 29 181 0 24 4918 18 79983 15595 2.8 20 7 2 6 25% 6751 70050 13038 38%
c c 16.93 29 181 0 24 4918 18 79983 15592 2.8 20 7 2 6 25% 6755 70034 13036 38%
c d 16.93 29 181 0 24 4918 18 79983 15592 2.8 20 7 2 6 25% 6751 70034 13036 38%
c u 16.97 29 181 0 24 4918 18 79983 14866 2.8 20 7 2 6 25% 6765 70034 13036 38%
c v 17.01 29 181 0 24 4918 18 79983 13847 2.8 20 7 2 6 25% 6769 70034 13036 38%
c w 17.07 29 181 0 24 4918 18 79983 13834 2.8 20 7 2 6 25% 6769 70034 13036 38%
c
c  seconds   switched     rate         size/glue tier1    binary         remaining
c         MB   reductions   conflicts        size  tier2     irredundant
c           level   restarts      redundant    glue   trail         variables
c
c x 17.12 29 181 0 24 4918 18 79983 13834 2.8 20 7 2 6 25% 6769 69318 13036 38%
c d 17.16 29 181 0 24 4918 18 79983 13826 2.8 20 7 2 6 25% 6751 69318 13027 38%
c - 17.35 29 179 0 25 5040 18 81646 13542 2.8 20 7 2 6 25% 6757 69318 13027 38%
c - 18.05 29 176 0 26 5524 18 86646 16228 2.8 20 7 2 6 25% 6784 69318 13027 38%
c - 18.79 29 174 0 27 6072 19 91746 18551 2.8 20 7 2 6 26% 6844 69318 13027 38%
c s 19.51 29 174 0 27 6467 19 95847 22112 2.8 20 7 2 6 26% 6894 69225 13027 38%
c e 19.62 29 174 0 27 6467 19 95847 22112 2.8 20 7 2 6 26% 4712 74896 11829 34%
c s 19.64 29 174 0 27 6467 19 95847 22112 2.8 20 7 2 6 26% 4712 74677 11829 34%
c e 19.66 29 174 0 27 6467 19 95847 22112 2.8 20 7 2 6 26% 4708 74740 11802 34%
c ^ 19.66 29 174 0 27 6467 19 95847 22112 2.8 20 7 2 6 26% 4708 74740 11802 34%
c - 19.88 28 173 0 28 6583 19 96942 14968 2.8 20 7 1 6 26% 4715 74740 11802 34%
c - 20.63 28 171 0 29 6909 19 102234 16364 2.8 20 7 1 6 25% 4776 74739 11802 34%
c d 21.23 28 169 0 29 7247 19 104647 18501 2.8 20 7 1 6 25% 4727 74739 11768 34%
c u 21.29 28 169 0 29 7247 19 104647 16542 2.8 20 7 1 6 25% 4746 74739 11768 34%
c v 21.40 28 169 0 29 7247 19 104647 13690 2.8 20 7 1 6 25% 4759 74739 11768 34%
c w 21.57 28 169 0 29 7247 19 104647 13652 2.8 20 7 1 6 25% 4759 74739 11768 34%
c x 21.66 28 169 0 29 7247 19 104647 13652 2.8 20 7 1 6 25% 4759 74651 11768 34%
c d 21.66 28 169 0 29 7247 19 104647 13642 2.8 20 7 1 6 25% 4735 74651 11756 34%
c t 21.68 28 169 0 29 7247 19 104647 13642 2.8 20 7 1 6 25% 4729 74651 11756 34%
c u 21.81 28 169 0 29 7247 19 104647 13192 2.8 20 7 1 6 25% 4741 74651 11756 34%
c
c  seconds   switched     rate          size/glue tier1    binary         remaining
c         MB   reductions   conflicts         size  tier2     irredundant
c           level   restarts       redundant    glue   trail         variables
c
c v 21.87 28 169 0 29 7247 19 104647 12601 2.8 20 7 1 6 25% 4743 74651 11756 34%
c w 22.02 28 169 0 29 7247 19 104647 12482 2.8 20 7 1 6 25% 4743 74651 11756 34%
c = 22.38 28 169 0 29 7247 19 104647 12482 2.8 20 7 1 6 25% 5817 74651 11219 32%
c d 22.39 28 169 0 29 7247 19 104647 11807 2.8 20 7 1 6 25% 4596 74651 11219 32%
c - 22.88 28 167 0 30 7541 19 107619 12249 2.7 20 7 1 6 26% 4603 74651 11219 32%
c o 23.17 28 165 0 30 7755 19 110466 14828 2.7 20 7 1 6 26% 4611 74649 11219 32%
c - 23.62 28 164 0 31 8079 19 113096 14754 2.7 20 7 1 6 26% 4613 74649 11219 32%
c - 24.52 28 161 0 32 8835 20 118663 16844 2.7 20 7 1 5 26% 4631 74649 11219 32%
c - 25.56 28 160 0 33 9538 20 124319 18456 2.7 21 8 1 5 27% 4646 74649 11219 32%
c - 26.54 28 158 0 34 10254 20 130063 20008 2.7 21 8 1 5 27% 4658 74649 11219 32%
c c 27.16 28 158 0 34 10561 21 132924 22486 2.8 21 8 1 5 27% 4693 74464 11180 32%
c d 27.16 28 158 0 34 10561 21 132924 22292 2.8 21 8 1 5 27% 4615 74464 11180 32%
c u 27.21 28 158 0 34 10561 21 132924 19626 2.8 21 8 1 5 27% 4623 74464 11180 32%
c v 27.30 28 158 0 34 10561 21 132924 15831 2.8 21 8 1 5 27% 4627 74464 11180 32%
c w 27.46 28 158 0 34 10561 21 132924 15783 2.8 21 8 1 5 27% 4627 74464 11180 32%
c x 27.53 28 158 0 34 10561 21 132924 15783 2.8 21 8 1 5 27% 4627 74445 11180 32%
c = 28.04 28 158 0 34 10561 21 132924 15783 2.8 21 8 1 5 27% 4865 74445 11061 32%
c d 28.04 28 158 0 34 10561 21 132924 15692 2.8 21 8 1 5 27% 4599 74445 11061 32%
c t 28.05 28 158 0 34 10561 21 132924 15692 2.8 21 8 1 5 27% 4595 74445 11061 32%
c u 28.10 28 158 0 34 10561 21 132924 15109 2.8 21 8 1 5 27% 4596 74445 11061 32%
c
c  seconds   switched      rate          size/glue tier1    binary         remaining
c         MB   reductions    conflicts         size  tier2     irredundant
c           level   restarts        redundant    glue   trail         variables
c
c v 28.14 28 158 0 34 10561 21 132924 14417 2.8 21 8 1 5 27% 4597 74445 11061 32%
c w 28.36 28 158 0 34 10561 21 132924 13942 2.8 21 8 1 5 27% 4597 74445 11061 32%
c = 28.88 28 158 0 34 10561 21 132924 13942 2.8 21 8 1 5 27% 4659 74401 11024 32%
c d 28.88 28 158 0 34 10561 21 132924 13919 2.8 21 8 1 5 27% 4595 74401 11024 32%
c - 29.25 28 156 0 35 10783 20 135893 14185 2.7 21 8 1 5 27% 4595 74401 11024 32%
c - 30.03 28 153 0 36 11286 20 141810 16773 2.7 21 8 1 5 27% 4600 74401 11024 32%
c - 30.85 28 151 0 37 11839 20 147811 18855 2.7 21 8 1 5 28% 4613 74401 11024 32%
c - 31.65 28 147 0 38 12349 20 153894 20495 2.7 21 8 1 5 28% 4621 74401 11024 32%
c s 31.99 28 144 0 38 12585 19 157983 24077 2.7 21 8 1 5 27% 4633 71179 11024 32%
c e 32.09 28 144 0 38 12585 19 157983 24077 2.7 21 8 1 5 27% 2354 82580 9513 27%
c 2 32.09 28 144 0 38 12585 19 157983 24077 2.7 21 8 1 5 27% 2352 82580 9513 27%
c s 32.12 28 144 0 38 12585 19 157983 24077 2.7 21 8 1 5 27% 2352 81899 9513 27%
c e 32.13 28 144 0 38 12585 19 157983 24077 2.7 21 8 1 5 27% 2345 81971 9490 27%
c ^ 32.13 28 144 0 38 12585 19 157983 24077 2.7 21 8 1 5 27% 2345 81971 9490 27%
c - 32.40 28 143 0 39 12777 19 160059 15606 2.7 21 8 1 5 27% 2348 81971 9490 27%
c o 32.45 28 143 0 39 12819 19 160466 15984 2.7 21 8 1 5 27% 2348 81971 9490 27%
c c 32.97 28 140 0 39 13170 19 164935 20133 2.6 21 8 1 5 27% 2368 81897 9481 27%
c d 32.97 28 140 0 39 13170 19 164935 20086 2.6 21 8 1 5 27% 2350 81897 9481 27%
c u 33.01 28 140 0 39 13170 19 164935 17879 2.6 21 8 1 5 27% 2365 81897 9481 27%
c v 33.09 28 140 0 39 13170 19 164935 14701 2.6 21 8 1 5 27% 2368 81897 9481 27%
c
c  seconds   switched      rate          size/glue tier1    binary        remaining
c         MB   reductions    conflicts         size  tier2     irredundant
c           level   restarts        redundant    glue   trail        variables
c
c w 33.28 28 140 0 39 13170 19 164935 14285 2.6 21 8 1 5 27% 2368 81897 9481 27%
c = 33.73 28 140 0 39 13170 19 164935 14285 2.6 21 8 1 5 27% 2374 81897 9478 27%
c d 33.73 28 140 0 39 13170 19 164935 14278 2.6 21 8 1 5 27% 2365 81897 9478 27%
c t 33.74 28 140 0 39 13170 19 164935 14278 2.6 21 8 1 5 27% 2348 81897 9478 27%
c f 33.84 28 140 0 39 13170 19 164935 14278 2.6 21 8 1 5 27% 2368 81511 9496 27%
c u 33.88 28 140 0 39 13170 19 164935 13872 2.6 21 8 1 5 27% 2370 81511 9496 27%
c v 33.93 28 140 0 39 13170 19 164935 13348 2.6 21 8 1 5 27% 2370 81511 9496 27%
c w 34.07 28 140 0 39 13170 19 164935 13077 2.6 21 8 1 5 27% 2370 81511 9496 27%
c x 34.15 28 140 0 39 13170 19 164935 13062 2.6 21 8 1 5 27% 2370 79712 9496 27%
c t 34.62 28 140 0 39 13170 19 164935 13062 2.6 21 8 1 5 27% 2368 79712 9496 27%
c - 34.78 28 139 0 40 13275 19 166303 11839 2.6 21 8 1 5 27% 2370 79712 9496 27%
c i 35.11 28 138 0 40 13482 19 168969 14268 2.6 21 8 1 5 27% 2377 79709 9495 27%
c - 35.46 28 136 0 41 13729 19 172628 14762 2.6 20 8 1 5 27% 2385 79709 9495 27%
c - 36.14 28 133 0 42 14240 18 179032 17103 2.5 20 8 1 5 27% 2399 79708 9495 27%
c - 36.78 28 129 0 43 14750 18 185513 18843 2.5 20 8 1 5 26% 2413 79707 9495 27%
c i 37.10 28 128 0 43 14991 18 188346 21434 2.5 20 8 1 5 26% 2422 79707 9472 27%
c i 37.10 28 128 0 43 15001 18 188399 21473 2.5 20 8 1 5 26% 2424 79707 9471 27%
c i 37.14 28 128 0 43 15033 18 188652 21690 2.5 20 8 1 5 26% 2431 79707 9470 27%
c i 37.19 28 128 0 43 15072 18 189139 22138 2.5 20 8 1 5 26% 2432 79707 9469 27%
c i 37.43 28 126 0 43 15292 18 191692 24428 2.5 20 8 1 5 26% 2446 79707 9467 27%
c
c  seconds   switched      rate          size/glue tier1    binary        remaining
c         MB   reductions    conflicts         size  tier2     irredundant
c           level   restarts        redundant    glue   trail        variables
c
c - 37.47 28 126 0 44 15310 17 192074 19724 2.5 20 8 1 5 26% 2472 79707 9467 27%
c i 37.70 28 124 0 44 15487 17 195242 22551 2.5 20 8 1 5 25% 2484 79707 9464 27%
c i 37.93 28 123 0 44 15664 17 197879 24913 2.5 20 8 1 5 25% 2497 79707 9462 27%
c - 38.01 28 122 0 45 15719 17 198707 20660 2.5 20 8 1 5 25% 2499 79707 9462 27%
c i 38.01 28 122 0 45 15719 17 198794 20703 2.5 20 8 1 5 25% 2504 79707 9461 27%
c d 38.18 28 121 0 45 15844 17 200758 22127 2.5 20 8 1 5 25% 2505 79374 9401 27%
c d 38.18 28 121 0 45 15844 17 200758 21954 2.5 20 8 1 5 25% 2385 79374 9341 27%
c b 38.18 28 121 0 45 15844 17 200758 21954 2.5 20 8 1 5 25% 2385 79374 9340 27%
c u 38.22 28 121 0 45 15844 17 200758 19714 2.5 20 8 1 5 25% 2409 79374 9340 27%
c v 38.30 28 121 0 45 15844 17 200758 15845 2.5 20 8 1 5 25% 2416 79374 9340 27%
c w 38.37 28 121 0 45 15844 17 200758 15406 2.5 20 8 1 5 25% 2417 79374 9340 27%
c d 38.38 28 121 0 45 15844 17 200758 15360 2.5 20 8 1 5 25% 2399 79366 9331 27%
c t 38.39 28 121 0 45 15844 17 200758 15360 2.5 20 8 1 5 25% 2396 79366 9331 27%
c c 38.42 28 121 0 45 15844 17 200758 15360 2.5 20 8 1 5 25% 2425 79002 9305 27%
c d 38.42 28 121 0 45 15844 17 200758 15334 2.5 20 8 1 5 25% 2373 79002 9305 27%
c u 38.46 28 121 0 45 15844 17 200758 14971 2.5 20 8 1 5 25% 2374 79002 9305 27%
c v 38.51 28 121 0 45 15844 17 200758 14338 2.5 20 8 1 5 25% 2376 79002 9305 27%
c w 38.56 28 121 0 45 15844 17 200758 14203 2.5 20 8 1 5 25% 2376 79002 9305 27%
c x 38.65 28 121 0 45 15844 17 200758 14203 2.5 20 8 1 5 25% 2376 78909 9305 27%
c = 39.07 28 121 0 45 15844 17 200758 14203 2.5 20 8 1 5 25% 2446 78851 9265 27%
c
c  seconds   switched      rate          size/glue tier1    binary        remaining
c         MB   reductions    conflicts         size  tier2     irredundant
c           level   restarts        redundant    glue   trail        variables
c
c d 39.07 28 121 0 45 15844 17 200758 14071 2.5 20 8 1 5 25% 2356 78851 9265 27%
c i 39.12 28 120 0 45 15895 17 202119 15215 2.5 20 8 1 5 25% 2363 78849 9264 27%
c - 39.21 28 118 0 46 16022 16 205415 14391 2.5 20 8 1 5 24% 2366 78849 9264 27%
c i 39.33 28 114 0 46 16262 16 209726 17912 2.4 19 8 1 5 23% 2422 78849 9263 27%
c i 39.35 28 113 0 46 16277 16 210711 18745 2.4 19 8 1 5 23% 2432 78849 9262 27%
c i 39.35 28 113 0 46 16277 16 210737 18755 2.4 19 8 1 5 23% 2436 78849 9261 27%
c i 39.35 28 113 0 46 16277 16 210738 18755 2.4 19 8 1 5 23% 2436 78849 9260 27%
c i 39.35 28 113 0 46 16277 16 210739 18755 2.4 19 8 1 5 23% 2436 78849 9255 27%
c i 39.35 28 113 0 46 16277 16 210742 18755 2.4 19 8 1 5 23% 2438 78849 9253 27%
c } 39.35 28 113 0 46 16277 16 210744 18755 2.4 19 8 1 5 23% 2438 78849 9244 27%
c 0 39.35 28 113 0 46 16277 16 210744 18755 2.4 19 8 1 5 23% 2438 78849 9244 27%
c
c ---- [ result ] ------------------------------------------------------------
c
s UNSATISFIABLE
c
c ---- [ profiling ] ---------------------------------------------------------
c
c          27.25   69.26 %  search
c          27.25   69.26 %  focused
c          11.55   29.36 %  simplify
c          11.06   28.12 %  probe
c           4.77   12.13 %  sweep
c           4.29   10.90 %  vivify
c           0.78    1.99 %  eliminate
c           0.77    1.95 %  factor
c           0.56    1.43 %  congruence
c           0.50    1.27 %  substitute
c           0.45    1.15 %  preprocess
c           0.23    0.59 %  reduce
c           0.15    0.38 %  fastel
c           0.14    0.36 %  subsume
c           0.12    0.30 %  transitive
c           0.06    0.14 %  backbone
c           0.05    0.13 %  lucky
c           0.04    0.09 %  parse
c =============================================
c          39.35  100.00 %  total
c
c ---- [ statistics ] --------------------------------------------------------
c
c chronological:                         4148                2 %  conflicts
c conflicts:                           210744             5355.94 per second
c congruent:                             3681               11 %  variables
c decisions:                          3488165               16.55 per conflict
c eliminated:                           18879               54 %  variables
c factored:                              3513               10 %  variables
c fast_eliminated:                      11041               58 %  eliminated
c fast_subsumed:                           55                0 %  per subsumed
c iterations:                              17                0 %  variables
c propagations:                     154219040          3919387    per second
c reductions:                              46             4581    interval
c reordered:                                6            35124    interval
c restarts:                             16277               13    interval
c strengthened:                          4555                0 %  checks
c substituted:                           9967               29 %  variables
c subsumed:                             16777                0 %  checks
c switched:                                 0                0    interval
c vivified:                             90765               15 %  checks
c
c ---- [ glue usage ] --------------------------------------------------------
c
c focused glue 1 used 327163 clauses 55.50% accumulated 55.50% tier1
c focused glue 2 used 128305 clauses 21.77% accumulated 77.27%
c focused glue 3 used  40173 clauses  6.82% accumulated 84.09%
c focused glue 4 used  23803 clauses  4.04% accumulated 88.12%
c focused glue 5 used  14753 clauses  2.50% accumulated 90.63% tier2
c
c ---- [ resources ] ---------------------------------------------------------
c
c maximum-resident-set-size:         30081024 bytes         29 MB
c process-time:                            39s              39.35 seconds
c
c ---- [ shutting down ] -----------------------------------------------------
c
c exit 20
